20
60.0
0 19 25.84 4.84
1 18 27.39 4.72
2 17 26.29 3.71
3 16 25.81 5.25
4 15 24.53 5.53
5 14 24.57 4.57
6 13 28.62 4.46
7 12 25.25 6.42
8 11 24.73 2.82
9 10 25.7 5.5
10 9 25.67 4.44
11 8 25.62 5.0
12 7 25.43 4.14
13 6 26.0 3.17
14 5 27.0 3.4
15 4 23.25 5.25
16 3 23.67 6.33
17 2 26.0 4.0
18 1 22.0 2.0
